L=2,3|T=0,1|O=1|d=1.046|a=-0.1941|b=0.4930
1.0
   9.6482895217254825    0.0000000000000014    0.0000000000000000
   2.4036318179011702    8.3451272758566919    0.0000000000000000
   0.0000000000000000    0.0000000000000000   93.7191600000000022
Zn Ge O
78 12 102
direct
   0.8475078153130096    0.9563105731767475    0.5122868505189460 Zn
   0.5120228153130100    0.9645155732678159    0.5124068253513530 Zn
   0.3118978153130093    0.5648905769586020    0.5172691593976605 Zn
   0.6436828153130102    0.5677855774682420    0.5179405713479630 Zn
   0.2485578153130103    0.2483905864330369    0.5297510130797535 Zn
   0.9175778153130103    0.2430805868516090    0.5303024501976488 Zn
   0.2266278153130105    0.8189505972989412    0.5440660225862013 Zn
   0.8956478153130101    0.8136405977175141    0.5446174597040967 Zn
   0.5005228153130102    0.4942456066823099    0.5564279014358871 Zn
   0.8323078153130102    0.4971406071919497    0.5570993133861893 Zn
   0.6321828153130102    0.0975156108827369    0.5619616474324973 Zn
   0.2966978153130101    0.1057206109738052    0.5620816222649043 Zn
   0.3475078153130101    0.4563106297405399    0.5868053799642760 Zn
   0.0120228153130103    0.4645156298316078    0.5869253547966830 Zn
   0.8118978153130095    0.0648906335223955    0.5917876888429907 Zn
   0.1436828153130098    0.0677856340320360    0.5924591007932930 Zn
   0.7485578153130098    0.7483906429968302    0.6042695425250836 Zn
   0.4175778153130107    0.7430806434154034    0.6048209796429788 Zn
   0.7266278153130106    0.3189506538627342    0.6185845520315313 Zn
   0.3956478153130101    0.3136406542813068    0.6191359891494268 Zn
   0.0005228153130106    0.9942456632461031    0.6309464308812170 Zn
   0.3323078153130103    0.9971406637557427    0.6316178428315199 Zn
   0.1321828153130100    0.5975156674465304    0.6364801768778275 Zn
   0.7966978153130104    0.6057206675375989    0.6366001517102343 Zn
   0.9629628888888886    0.2222226666666667    0.3374005000000000 Zn2+
   0.2962962222222221    0.2222226666666667    0.3374005000000000 Zn2+
   0.0740740000000000    0.5555560000000003    0.3374005000000000 Zn2+
   0.6296295555555552    0.2222226666666668    0.3374005000000000 Zn2+
   0.4074073333333330    0.5555560000000003    0.3374005000000000 Zn2+
   0.1851851111111112    0.8888893333333333    0.3374005000000000 Zn2+
   0.7407406666666666    0.5555560000000002    0.3374005000000000 Zn2+
   0.5185184444444444    0.8888893333333332    0.3374005000000000 Zn2+
   0.8518517777777778    0.8888893333333328    0.3374005000000000 Zn2+
   0.0000000000000000    0.0000000000000000    0.3658003864980840 Zn2+
   0.3333333333333332    0.0000000000000000    0.3658003864980840 Zn2+
   0.1111111111111111    0.3333333333333331    0.3658003864980840 Zn2+
   0.6666666666666663    0.0000000000000002    0.3658003864980840 Zn2+
   0.4444444444444442    0.3333333333333331    0.3658003864980840 Zn2+
   0.2222222222222222    0.6666666666666663    0.3658003864980840 Zn2+
   0.7777777777777777    0.3333333333333332    0.3658003864980840 Zn2+
   0.5555555555555555    0.6666666666666667    0.3658003864980840 Zn2+
   0.8888888888888884    0.6666666666666663    0.3658003864980840 Zn2+
   0.9629628888888886    0.2222226666666667    0.3942002729961681 Zn2+
   0.2962962222222221    0.2222226666666667    0.3942002729961681 Zn2+
   0.0740740000000000    0.5555560000000003    0.3942002729961681 Zn2+
   0.6296295555555552    0.2222226666666668    0.3942002729961681 Zn2+
   0.4074073333333330    0.5555560000000003    0.3942002729961681 Zn2+
   0.1851851111111112    0.8888893333333333    0.3942002729961681 Zn2+
   0.7407406666666666    0.5555560000000002    0.3942002729961681 Zn2+
   0.5185184444444444    0.8888893333333332    0.3942002729961681 Zn2+
   0.8518517777777778    0.8888893333333328    0.3942002729961681 Zn2+
   0.0000000000000000    0.0000000000000000    0.4226001594942521 Zn2+
   0.3333333333333332    0.0000000000000000    0.4226001594942521 Zn2+
   0.1111111111111111    0.3333333333333331    0.4226001594942521 Zn2+
   0.6666666666666663    0.0000000000000002    0.4226001594942521 Zn2+
   0.4444444444444442    0.3333333333333331    0.4226001594942521 Zn2+
   0.2222222222222222    0.6666666666666663    0.4226001594942521 Zn2+
   0.7777777777777777    0.3333333333333332    0.4226001594942521 Zn2+
   0.5555555555555555    0.6666666666666667    0.4226001594942521 Zn2+
   0.8888888888888884    0.6666666666666663    0.4226001594942521 Zn2+
   0.9629628888888886    0.2222226666666667    0.4510000459923362 Zn2+
   0.2962962222222221    0.2222226666666667    0.4510000459923362 Zn2+
   0.0740740000000000    0.5555560000000003    0.4510000459923362 Zn2+
   0.6296295555555552    0.2222226666666668    0.4510000459923362 Zn2+
   0.4074073333333330    0.5555560000000003    0.4510000459923362 Zn2+
   0.1851851111111112    0.8888893333333333    0.4510000459923362 Zn2+
   0.7407406666666666    0.5555560000000002    0.4510000459923362 Zn2+
   0.5185184444444444    0.8888893333333332    0.4510000459923362 Zn2+
   0.8518517777777778    0.8888893333333328    0.4510000459923362 Zn2+
   0.0000000000000000    0.0000000000000000    0.4793999324904202 Zn2+
   0.3333333333333332    0.0000000000000000    0.4793999324904202 Zn2+
   0.1111111111111111    0.3333333333333331    0.4793999324904202 Zn2+
   0.6666666666666663    0.0000000000000002    0.4793999324904202 Zn2+
   0.4444444444444442    0.3333333333333331    0.4793999324904202 Zn2+
   0.2222222222222222    0.6666666666666663    0.4793999324904202 Zn2+
   0.7777777777777777    0.3333333333333332    0.4793999324904202 Zn2+
   0.5555555555555555    0.6666666666666667    0.4793999324904202 Zn2+
   0.8888888888888884    0.6666666666666663    0.4793999324904202 Zn2+
   0.1791778153130095    0.9593105736677215    0.5129336713545314 Ge
   0.9746828153130102    0.5727955770530641    0.5173936053418343 Ge
   0.5822378153130099    0.2510905869274054    0.5304023050271056 Ge
   0.5619678153130099    0.8109405972231472    0.5439661677567446 Ge
   0.1695228153130104    0.4892356070974877    0.5569748674420159 Ge
   0.9650278153130099    0.1027206104828307    0.5614348014293188 Ge
   0.6791778153130098    0.4593106302315142    0.5874522007998615 Ge
   0.4746828153130099    0.0727956336168569    0.5919121347871644 Ge
   0.0822378153130102    0.7510906434911976    0.6049208344724357 Ge
   0.0619678153130096    0.3109406537869397    0.6184846972020746 Ge
   0.6695228153130102    0.9892356636612821    0.6314933968873458 Ge
   0.4650278153130109    0.6027206670466233    0.6359533308746489 Ge
   0.1615528153130096    0.4710655800441574    0.5213341451789033 O
   0.8585528153130101    0.4641655805645446    0.5220197156498003 O
   0.2352528153130106    0.7897655819560127    0.5238528714741555 O
   0.5166528153130101    0.4509655820917661    0.5240317159448241 O
   0.9093528153130100    0.7674655824990251    0.5245682493568307 O
   0.7682028153130100    0.1502155825386198    0.5246204123274423 O
   0.1234528153130104    0.1233655825555890    0.5246427678862758 O
   0.4594528153130101    0.1605655826687169    0.5247918049451665 O
   0.5699028153130100    0.7858155834888929    0.5258723236221240 O
   0.5743028153130103    0.2762156006616596    0.5484961491617261 O
   0.6847528153130099    0.9014656014818344    0.5495766678386835 O
   0.0207528153130105    0.9386656015949626    0.5497257048975740 O
   0.3760028153130104    0.9118156016119313    0.5497480604564077 O
   0.2348528153130108    0.2945656016515255    0.5498002234270194 O
   0.6275528153130100    0.6110656020587854    0.5503367568390258 O
   0.9089528153130100    0.2722656021945400    0.5505156013096948 O
   0.2856528153130102    0.5978656035860074    0.5523487571340496 O
   0.9826528153130100    0.5909656041063943    0.5530343276049466 O
   0.8158028153130102    0.0915156177326129    0.5709858413483268 O
   0.1199528153130108    0.0949656183830960    0.5718428044369481 O
   0.4617028153130096    0.1086156198933499    0.5738324491731385 O
   0.1825028153130113    0.4534156208209943    0.5750545530560418 O
   0.5242528153130099    0.4670656223312490    0.5770441977922319 O
   0.8284028153130112    0.4705156229817313    0.5779011608808533 O
   0.6615528153130101    0.9710656366079505    0.5958526746242333 O
   0.3585528153130105    0.9641656371283360    0.5965382450951303 O
   0.7352528153130112    0.2897656385198064    0.5983714009194855 O
   0.0166528153130104    0.9509656386555586    0.5985502453901544 O
   0.4093528153130108    0.2674656390628174    0.5990867788021607 O
   0.2682028153130106    0.6502156391024123    0.5991389417727724 O
   0.6234528153130107    0.6233656391193815    0.5991612973316061 O
   0.9594528153130109    0.6605656392325093    0.5993103343904965 O
   0.0699028153130100    0.2858156400526851    0.6003908530674540 O
   0.0743028153130111    0.7762156572254515    0.6230146786070563 O
   0.1847528153130109    0.4014656580456274    0.6240951972840135 O
   0.5207528153130101    0.4386656581587562    0.6242442343429042 O
   0.8760028153130105    0.4118156581757249    0.6242665899017380 O
   0.7348528153130108    0.7945656582153190    0.6243187528723494 O
   0.1275528153130107    0.1110656586225782    0.6248552862843559 O
   0.4089528153130105    0.7722656587583319    0.6250341307550246 O
   0.7856528153130100    0.0978656601498016    0.6268672865793797 O
   0.4826528153130100    0.0909656606701881    0.6275528570502770 O
   0.3158028153130109    0.5915156742964053    0.6455043707936567 O
   0.6199528153130108    0.5949656749468891    0.6463613338822781 O
   0.9617028153130095    0.6086156764571432    0.6483509786184685 O
   0.6825028153130114    0.9534156773847875    0.6495730825013718 O
   0.0242528153130105    0.9670656788950414    0.6515627272375621 O
   0.3284028153130104    0.9705156795455248    0.6524196903261833 O
   0.9629628888888886    0.2222226666666667    0.3591264131710343 O2-
   0.2962962222222221    0.2222226666666667    0.3591264131710343 O2-
   0.0740740000000000    0.5555560000000003    0.3591264131710343 O2-
   0.6296295555555552    0.2222226666666668    0.3591264131710343 O2-
   0.4074073333333330    0.5555560000000003    0.3591264131710343 O2-
   0.1851851111111112    0.8888893333333333    0.3591264131710343 O2-
   0.7407406666666666    0.5555560000000002    0.3591264131710343 O2-
   0.5185184444444444    0.8888893333333332    0.3591264131710343 O2-
   0.8518517777777778    0.8888893333333328    0.3591264131710343 O2-
   0.0000000000000000    0.0000000000000000    0.3875262996691185 O2-
   0.3333333333333332    0.0000000000000000    0.3875262996691185 O2-
   0.1111111111111111    0.3333333333333331    0.3875262996691185 O2-
   0.6666666666666663    0.0000000000000002    0.3875262996691185 O2-
   0.4444444444444442    0.3333333333333331    0.3875262996691185 O2-
   0.2222222222222222    0.6666666666666663    0.3875262996691185 O2-
   0.7777777777777777    0.3333333333333332    0.3875262996691185 O2-
   0.5555555555555555    0.6666666666666667    0.3875262996691185 O2-
   0.8888888888888884    0.6666666666666663    0.3875262996691185 O2-
   0.9629628888888886    0.2222226666666667    0.4159261861672024 O2-
   0.2962962222222221    0.2222226666666667    0.4159261861672024 O2-
   0.0740740000000000    0.5555560000000003    0.4159261861672024 O2-
   0.6296295555555552    0.2222226666666668    0.4159261861672024 O2-
   0.4074073333333330    0.5555560000000003    0.4159261861672024 O2-
   0.1851851111111112    0.8888893333333333    0.4159261861672024 O2-
   0.7407406666666666    0.5555560000000002    0.4159261861672024 O2-
   0.5185184444444444    0.8888893333333332    0.4159261861672024 O2-
   0.8518517777777778    0.8888893333333328    0.4159261861672024 O2-
   0.0000000000000000    0.0000000000000000    0.4443260726652865 O2-
   0.3333333333333332    0.0000000000000000    0.4443260726652865 O2-
   0.1111111111111111    0.3333333333333331    0.4443260726652865 O2-
   0.6666666666666663    0.0000000000000002    0.4443260726652865 O2-
   0.4444444444444442    0.3333333333333331    0.4443260726652865 O2-
   0.2222222222222222    0.6666666666666663    0.4443260726652865 O2-
   0.7777777777777777    0.3333333333333332    0.4443260726652865 O2-
   0.5555555555555555    0.6666666666666667    0.4443260726652865 O2-
   0.8888888888888884    0.6666666666666663    0.4443260726652865 O2-
   0.9629628888888886    0.2222226666666667    0.4727259591633705 O2-
   0.2962962222222221    0.2222226666666667    0.4727259591633705 O2-
   0.0740740000000000    0.5555560000000003    0.4727259591633705 O2-
   0.6296295555555552    0.2222226666666668    0.4727259591633705 O2-
   0.4074073333333330    0.5555560000000003    0.4727259591633705 O2-
   0.1851851111111112    0.8888893333333333    0.4727259591633705 O2-
   0.7407406666666666    0.5555560000000002    0.4727259591633705 O2-
   0.5185184444444444    0.8888893333333332    0.4727259591633705 O2-
   0.8518517777777778    0.8888893333333328    0.4727259591633705 O2-
   0.0000000000000000    0.0000000000000000    0.5011258456614547 O2-
   0.3333333333333332    0.0000000000000000    0.5011258456614547 O2-
   0.1111111111111111    0.3333333333333331    0.5011258456614547 O2-
   0.6666666666666663    0.0000000000000002    0.5011258456614547 O2-
   0.4444444444444442    0.3333333333333331    0.5011258456614547 O2-
   0.2222222222222222    0.6666666666666663    0.5011258456614547 O2-
   0.7777777777777777    0.3333333333333332    0.5011258456614547 O2-
   0.5555555555555555    0.6666666666666667    0.5011258456614547 O2-
   0.8888888888888884    0.6666666666666663    0.5011258456614547 O2-
